26645093521427056445013,12,1,2,013,10,1,2,010,5,1,2,014,14,1,2,014,12,1,2,013,14,1,2,08,7,1,2,014,7,1,2,06,5,1,2,012,14,1,2,01,4,1,2,08,6,1,2,010,8,1,2,02,7,1,2,012,7,1,2,06,15,1,2,012,12,1,2,08,1,1,2,03,4,1,2,07,8,1,2,02,14,1,2,015,5,1,2,013,12,1,2,06,12,1,2,03,8,1,2,04,13,1,2,09,4,1,2,07,11,1,2,03,15,1,2,05,4,1,2,03,14,1,2,012,7,1,2,010,4,1,2,014,6,1,2,014,15,1,2,013,14,1,2,015,9,1,2,015,10,1,2,013,11,1,2,014,1,1,2,02,9,1,2,014,1,1,2,03,7,1,2,011,9,1,2,03,14,1,2,01,1,1,2,011,9,1,2,015,10,1,2,013,6,1,2,012,9,1,2,0